2167.59
0 46 48 60 30 68 0
0 8 9 71 36 57 0
0 10 11 12 18 0
0 35 64 21 69 22 13 0
0 28 47 5 61 37 0
0 50 25 6 62 73 75 0
0 33 34 2 17 0
0 38 39 41 49 67 0
0 42 43 26 15 56 1 0
0 31 4 74 29 45 0
0 55 65 58 16 3 44 0
0 63 24 19 7 32 0
0 40 52 14 0
0 20 27 70 23 51 0
0 54 66 72 53 59 0
